37452077188492260155014,7,1,2,010,4,1,2,010,2,1,2,05,9,1,2,07,4,1,2,09,4,1,2,07,3,1,2,014,4,1,2,07,8,1,2,04,4,1,2,05,13,1,2,013,8,1,2,03,1,1,2,08,5,1,2,07,12,1,2,011,7,1,2,05,14,1,2,010,4,1,2,04,14,1,2,010,5,1,2,014,9,1,2,010,2,1,2,07,13,1,2,06,11,1,2,04,3,1,2,01,15,1,2,04,14,1,2,04,3,1,2,09,14,1,2,013,9,1,2,04,12,1,2,011,3,1,2,02,3,1,2,07,13,1,2,013,9,1,2,03,12,1,2,02,12,1,2,014,13,1,2,08,9,1,2,05,15,1,2,03,4,1,2,04,4,1,2,07,4,1,2,04,10,1,2,07,12,1,2,014,5,1,2,04,10,1,2,09,1,1,2,013,13,1,2,010,6,1,2,0